
Gurobi 11.0.3 (linux64) logging started Sat Nov 23 08:53:45 2024

Set parameter LogFile to value "/home/yihong/Coding/OR_SUC/SUC_results_bigM100000_thread4/case24_ieee_rts_theta0.5_epsilon0.05_gurobi_seed1130000_num_gen100_N_WDR150_load_scaling_factor1_exact_T24quadra_cost.txt"
Set parameter TimeLimit to value 3600
Gurobi Optimizer version 11.0.3 build v11.0.3rc0 (linux64 - "Ubuntu 20.04.6 LTS")

CPU model: AMD EPYC 7532 32-Core Processor, instruction set [SSE2|AVX|AVX2]
Thread count: 64 physical cores, 128 logical processors, using up to 4 threads

Optimize a model with 61503 rows, 30061 columns and 1734438 nonzeros
Model fingerprint: 0x3630df96
Model has 2400 quadratic constraints
Variable types: 27511 continuous, 2550 integer (2550 binary)
Coefficient statistics:
  Matrix range     [8e-05, 1e+05]
  QMatrix range    [2e-03, 8e-03]
  QLMatrix range   [3e-01, 6e+01]
  Objective range  [1e+00, 1e+00]
  Bounds range     [1e+00, 1e+00]
  RHS range        [1e+00, 1e+05]
Presolve removed 50604 rows and 12692 columns
Presolve time: 0.49s
Presolved: 10899 rows, 17369 columns, 67226 nonzeros
Presolved model has 2400 quadratic constraint(s)
Variable types: 14830 continuous, 2539 integer (2539 binary)

Root relaxation: objective 5.045017e+04, 8660 iterations, 0.24 seconds (0.29 work units)

    Nodes    |    Current Node    |     Objective Bounds      |     Work
 Expl Unexpl |  Obj  Depth IntInf | Incumbent    BestBd   Gap | It/Node Time

     0     0 50450.1743    0   19          - 50450.1743      -     -    0s
     0     0 339559.619    0  732          - 339559.619      -     -    1s
     0     0 356287.505    0  780          - 356287.505      -     -    1s
     0     0 604360.304    0  748          - 604360.304      -     -    2s
     0     0 604460.039    0  425          - 604460.039      -     -    2s
     0     0 604670.727    0  210          - 604670.727      -     -    2s
     0     0 604672.718    0  212          - 604672.718      -     -    2s
     0     0 604675.329    0  212          - 604675.329      -     -    2s
     0     2 604675.329    0  212          - 604675.329      -     -    4s
    39    46 604710.568    8  198          - 604689.051      -  55.6    5s
H  548   350                    604878.34513 604689.051  0.03%  27.7    8s
*  548   350             188    604878.34513 604689.051  0.03%  27.7    8s

Cutting planes:
  Gomory: 23
  Implied bound: 404
  MIR: 119
  Flow cover: 207
  RLT: 6
  Relax-and-lift: 18

Explored 608 nodes (39509 simplex iterations) in 9.13 seconds (13.79 work units)
Thread count was 4 (of 128 available processors)

Solution count 2: 604878 604878 

Optimal solution found (tolerance 1.00e-03)
Warning: max constraint violation (3.1927e-07) exceeds tolerance
Best objective 6.048783451358e+05, best bound 6.046890510938e+05, gap 0.0313%
